data_14ni_tcnq2
_audit_creation_date              2012-04-18
_audit_creation_method
;
  Olex2 1.1
  (compiled Nov  1 2011 20:42:30, GUI svn.r3906)
;
_publ_contact_author_address      ?
_publ_contact_author_email        ?
_publ_contact_author_name         ''
_publ_contact_author_phone        ?
_chemical_name_common             ?
_chemical_name_systematic
;
 ? 
;
_chemical_formula_moiety          'C14 H18 N4 Ni O4, C12 H4 N4'
_chemical_formula_sum             'C26 H22 N8 Ni O4'
_chemical_formula_weight          569.23
_chemical_melting_point           ?
loop_
  _atom_type_symbol
  _atom_type_description
  _atom_type_scat_dispersion_real
  _atom_type_scat_dispersion_imag
  _atom_type_scat_source
 'C' 'C' 0.0033 0.0016 'International Tables Vol C Tables 4.2.6.8 and 6.1.1.4'
 'H' 'H' 0.0000 0.0000 'International Tables Vol C Tables 4.2.6.8 and 6.1.1.4'
 'N' 'N' 0.0061 0.0033 'International Tables Vol C Tables 4.2.6.8 and 6.1.1.4'
 'Ni' 'Ni' 0.3393 1.1124 'International Tables Vol C Tables 4.2.6.8 and 6.1.1.4'
 'O' 'O' 0.0106 0.0060 'International Tables Vol C Tables 4.2.6.8 and 6.1.1.4'

_space_group_crystal_system       'monoclinic'
_space_group_IT_number            14
_space_group_name_H-M_alt         'P 1 21/c 1'
_space_group_name_Hall            '-P 2ybc'
loop_
  _space_group_symop_id
  _space_group_symop_operation_xyz
 1 'x, y, z'
 2 '-x, y+1/2, -z+1/2'
 3 '-x, -y, -z'
 4 'x, -y-1/2, z-1/2'

_cell_length_a                    7.79810(10)
_cell_length_b                    12.4408(2)
_cell_length_c                    12.5783(2)
_cell_angle_alpha                 90.00
_cell_angle_beta                  97.647(2)
_cell_angle_gamma                 90.00
_cell_volume                      1209.43(3)
_cell_formula_units_Z             2
_cell_measurement_reflns_used     15357
_cell_measurement_temperature     100(2)
_cell_measurement_theta_max       32.1730
_cell_measurement_theta_min       2.3081
_exptl_absorpt_coefficient_mu     0.855
_exptl_absorpt_correction_T_max   0.9194
_exptl_absorpt_correction_T_min   0.7835
_exptl_absorpt_correction_type    'multi-scan'
_exptl_absorpt_process_details    
;
CrysAlisPro, Agilent Technologies,
Version 1.171.35.19 (release 27-10-2011 CrysAlis171 .NET)
(compiled Oct 27 2011,15:02:11)
Empirical absorption correction using spherical harmonics,
 implemented in SCALE3 ABSPACK scaling algorithm.
;
_exptl_crystal_colour             'metallic dark grey'
_exptl_crystal_colour_lustre      metallic
_exptl_crystal_colour_modifier    dark
_exptl_crystal_colour_primary     grey
_exptl_crystal_density_diffrn     1.563
_exptl_crystal_density_meas       ?
_exptl_crystal_density_method     'not measured'
_exptl_crystal_description        ?
_exptl_crystal_F_000              588
_exptl_crystal_size_max           0.30
_exptl_crystal_size_mid           0.20
_exptl_crystal_size_min           0.10
_exptl_special_details
;
 ? 
;
_diffrn_reflns_av_R_equivalents   0.0288
_diffrn_reflns_av_unetI/netI      0.0166
_diffrn_reflns_limit_h_max        11
_diffrn_reflns_limit_h_min        -11
_diffrn_reflns_limit_k_max        18
_diffrn_reflns_limit_k_min        -18
_diffrn_reflns_limit_l_max        18
_diffrn_reflns_limit_l_min        -18
_diffrn_reflns_number             24054
_diffrn_reflns_theta_full         25.00
_diffrn_reflns_theta_max          32.25
_diffrn_reflns_theta_min          3.10
_diffrn_ambient_temperature       100.0
_diffrn_detector_area_resol_mean  ?
_diffrn_measured_fraction_theta_full 0.999
_diffrn_measured_fraction_theta_max 0.953
_diffrn_measurement_device_type   ?
_diffrn_measurement_method        ?
_diffrn_radiation_monochromator   graphite
_diffrn_radiation_type            'MO K\a'
_diffrn_radiation_wavelength      0.71073
_diffrn_source                    'fine-focus sealed tube'
_diffrn_source_current            n/a
_diffrn_source_voltage            n/a
_diffrn_standards_decay_%         ?
_diffrn_standards_interval_count  ?
_diffrn_standards_interval_time   ?
_diffrn_standards_number          ?
_reflns_number_gt                 3734
_reflns_number_total              4071
_reflns_threshold_expression      >2sigma(I)
_computing_cell_refinement        ?
_computing_data_collection        ?
_computing_data_reduction         ?
_computing_molecular_graphics
;
O. V. Dolomanov, L. J. Bourhis, R. J. Gildea, J. A. K. Howard and H. Puschmann,
OLEX2: a complete structure solution, refinement and analysis program.
J. Appl. Cryst. (2009). 42, 339-341.
;
_computing_publication_material
;
O. V. Dolomanov, L. J. Bourhis, R. J. Gildea, J. A. K. Howard and H. Puschmann,
OLEX2: a complete structure solution, refinement and analysis program.
J. Appl. Cryst. (2009). 42, 339-341.
;
_computing_structure_refinement
;
XL, G.M. Sheldrick, Acta Cryst.
(2008). A64, 112-122
;
_computing_structure_solution
;
XS, G.M. Sheldrick, Acta Cryst.
(2008). A64, 112-122
;
_refine_diff_density_max          0.442
_refine_diff_density_min          -0.446
_refine_diff_density_rms          0.073
_refine_ls_extinction_coef        ?
_refine_ls_extinction_method      none
_refine_ls_goodness_of_fit_ref    1.073
_refine_ls_hydrogen_treatment     constr
_refine_ls_matrix_type            full
_refine_ls_number_parameters      179
_refine_ls_number_reflns          4071
_refine_ls_number_restraints      0
_refine_ls_R_factor_all           0.0292
_refine_ls_R_factor_gt            0.0259
_refine_ls_restrained_S_all       1.073
_refine_ls_shift/su_max           0.000
_refine_ls_shift/su_mean          0.000
_refine_ls_structure_factor_coef  Fsqd
_refine_ls_weighting_details
'calc w=1/[\s^2^(Fo^2^)+(0.0371P)^2^+0.5453P] where P=(Fo^2^+2Fc^2^)/3'
_refine_ls_weighting_scheme       calc
_refine_ls_wR_factor_gt           0.0712
_refine_ls_wR_factor_ref          0.0734
_refine_special_details
;
 Refinement of F^2^ against ALL reflections.  The weighted R-factor wR and 
 goodness of fit S are based on F^2^, conventional R-factors R are based 
 on F, with F set to zero for negative F^2^. The threshold expression of 
 F^2^ > 2sigma(F^2^) is used only for calculating R-factors(gt) etc. and is 
 not relevant to the choice of reflections for refinement.  R-factors based 
 on F^2^ are statistically about twice as large as those based on F, and R- 
 factors based on ALL data will be even larger. 
;
_atom_sites_solution_hydrogens    geom
_atom_sites_solution_primary      direct
_atom_sites_solution_secondary    difmap
loop_
  _atom_site_label
  _atom_site_type_symbol
  _atom_site_fract_x
  _atom_site_fract_y
  _atom_site_fract_z
  _atom_site_U_iso_or_equiv
  _atom_site_adp_type
  _atom_site_occupancy
  _atom_site_symmetry_multiplicity
  _atom_site_calc_flag
  _atom_site_refinement_flags
  _atom_site_disorder_assembly
  _atom_site_disorder_group
 Ni1 Ni 0.5000 0.0000 0.0000 0.00840(5) Uani 1 2 d S . .
 O1 O 0.19620(10) 0.09442(6) 0.35647(6) 0.01483(14) Uani 1 1 d . . .
 O2 O 0.33355(11) -0.06212(6) 0.39980(6) 0.01692(15) Uani 1 1 d . . .
 N1 N 0.41099(11) 0.11103(6) 0.07421(7) 0.01044(14) Uani 1 1 d . . .
 N2 N 0.50527(10) -0.09609(6) 0.11319(6) 0.01004(14) Uani 1 1 d . . .
 N3 N 0.76368(14) 0.19249(8) 0.26794(8) 0.02143(19) Uani 1 1 d . . .
 N4 N 0.90900(14) -0.14479(8) 0.33272(8) 0.02067(19) Uani 1 1 d . . .
 C1 C 0.42054(14) 0.21710(8) 0.02340(8) 0.01346(17) Uani 1 1 d . . .
 H1A H 0.5314 0.2528 0.0501 0.016 Uiso 1 1 calc R . .
 H1B H 0.3245 0.2635 0.0401 0.016 Uiso 1 1 calc R . .
 C2 C 0.35100(12) 0.10543(8) 0.16636(8) 0.01082(16) Uani 1 1 d . . .
 H2 H 0.2972 0.1676 0.1907 0.013 Uiso 1 1 calc R . .
 C3 C 0.36105(12) 0.01293(8) 0.23196(8) 0.01066(16) Uani 1 1 d . . .
 C4 C 0.44364(12) -0.08197(8) 0.20423(7) 0.01063(16) Uani 1 1 d . . .
 H4 H 0.4553 -0.1392 0.2547 0.013 Uiso 1 1 calc R . .
 C5 C 0.59273(13) -0.19857(7) 0.09675(8) 0.01162(16) Uani 1 1 d . . .
 H5A H 0.5364 -0.2581 0.1311 0.014 Uiso 1 1 calc R . .
 H5B H 0.7156 -0.1950 0.1288 0.014 Uiso 1 1 calc R . .
 C6 C 0.28820(12) 0.02121(8) 0.33276(8) 0.01121(16) Uani 1 1 d . . .
 C7 C 0.26676(15) -0.05759(10) 0.50125(9) 0.0198(2) Uani 1 1 d . . .
 H7A H 0.1400 -0.0596 0.4888 0.030 Uiso 1 1 calc R . .
 H7B H 0.3049 0.0092 0.5385 0.030 Uiso 1 1 calc R . .
 H7C H 0.3100 -0.1193 0.5454 0.030 Uiso 1 1 calc R . .
 C8 C 0.82172(13) 0.11452(9) 0.23895(8) 0.01501(18) Uani 1 1 d . . .
 C9 C 0.90329(13) -0.07195(9) 0.27582(8) 0.01451(18) Uani 1 1 d . . .
 C10 C 0.89286(13) 0.01707(8) 0.20299(8) 0.01230(17) Uani 1 1 d . . .
 C11 C 0.94727(13) 0.00876(8) 0.10308(8) 0.01152(17) Uani 1 1 d . . .
 C12 C 0.92824(13) 0.09838(8) 0.02941(8) 0.01330(17) Uani 1 1 d . . .
 H12 H 0.8803 0.1640 0.0505 0.016 Uiso 1 1 calc R . .
 C13 C 0.97801(13) 0.08995(8) -0.06951(8) 0.01302(17) Uani 1 1 d . . .
 H13 H 0.9637 0.1494 -0.1172 0.016 Uiso 1 1 calc R . .

loop_
  _atom_site_aniso_label
  _atom_site_aniso_U_11
  _atom_site_aniso_U_22
  _atom_site_aniso_U_33
  _atom_site_aniso_U_23
  _atom_site_aniso_U_13
  _atom_site_aniso_U_12
 Ni1 0.01035(9) 0.00758(8) 0.00758(8) 0.00024(5) 0.00233(6) 0.00046(5)
 O1 0.0176(3) 0.0138(3) 0.0141(3) -0.0016(3) 0.0059(3) 0.0009(3)
 O2 0.0237(4) 0.0185(4) 0.0100(3) 0.0038(3) 0.0077(3) 0.0069(3)
 N1 0.0135(3) 0.0083(3) 0.0099(3) 0.0004(3) 0.0027(3) 0.0005(3)
 N2 0.0119(3) 0.0089(3) 0.0096(3) 0.0004(3) 0.0024(3) 0.0007(3)
 N3 0.0261(5) 0.0213(4) 0.0182(4) -0.0001(3) 0.0079(4) 0.0046(4)
 N4 0.0269(5) 0.0198(4) 0.0159(4) -0.0001(3) 0.0054(3) -0.0026(4)
 C1 0.0208(4) 0.0088(4) 0.0115(4) 0.0000(3) 0.0050(3) 0.0006(3)
 C2 0.0117(4) 0.0105(4) 0.0103(4) -0.0011(3) 0.0019(3) 0.0000(3)
 C3 0.0117(4) 0.0119(4) 0.0088(4) -0.0003(3) 0.0028(3) -0.0003(3)
 C4 0.0114(4) 0.0109(4) 0.0097(4) 0.0007(3) 0.0019(3) -0.0005(3)
 C5 0.0150(4) 0.0092(4) 0.0110(4) 0.0006(3) 0.0032(3) 0.0025(3)
 C6 0.0121(4) 0.0124(4) 0.0092(4) -0.0006(3) 0.0018(3) -0.0018(3)
 C7 0.0263(5) 0.0247(5) 0.0101(4) 0.0027(4) 0.0082(4) 0.0065(4)
 C8 0.0159(4) 0.0184(5) 0.0114(4) 0.0004(3) 0.0042(3) 0.0003(3)
 C9 0.0152(4) 0.0173(4) 0.0116(4) -0.0036(3) 0.0036(3) -0.0015(3)
 C10 0.0121(4) 0.0147(4) 0.0104(4) -0.0013(3) 0.0026(3) -0.0006(3)
 C11 0.0103(4) 0.0138(4) 0.0109(4) -0.0010(3) 0.0027(3) -0.0005(3)
 C12 0.0137(4) 0.0137(4) 0.0130(4) 0.0001(3) 0.0034(3) 0.0022(3)
 C13 0.0137(4) 0.0134(4) 0.0125(4) 0.0001(3) 0.0034(3) 0.0011(3)

_geom_special_details
;
 All esds (except the esd in the dihedral angle between two l.s. planes) 
 are estimated using the full covariance matrix.  The cell esds are taken 
 into account individually in the estimation of esds in distances, angles 
 and torsion angles; correlations between esds in cell parameters are only 
 used when they are defined by crystal symmetry.  An approximate (isotropic) 
 treatment of cell esds is used for estimating esds involving l.s. planes. 
;
loop_
  _geom_bond_atom_site_label_1
  _geom_bond_atom_site_label_2
  _geom_bond_distance
  _geom_bond_site_symmetry_2
  _geom_bond_publ_flag
 Ni1 N1 1.8529(8) . ?
 Ni1 N1 1.8529(8) 3_655 ?
 Ni1 N2 1.8553(8) . ?
 Ni1 N2 1.8553(8) 3_655 ?
 O1 C6 1.2208(12) . ?
 O2 C6 1.3534(12) . ?
 O2 C7 1.4420(12) . ?
 N1 C1 1.4724(12) . ?
 N1 C2 1.3083(12) . ?
 N2 C4 1.3113(12) . ?
 N2 C5 1.4733(12) . ?
 N3 C8 1.1500(14) . ?
 N4 C9 1.1519(15) . ?
 C1 H1A 0.9900 . ?
 C1 H1B 0.9900 . ?
 C1 C5 1.5186(13) 3_655 ?
 C2 H2 0.9500 . ?
 C2 C3 1.4122(13) . ?
 C3 C4 1.4108(13) . ?
 C3 C6 1.4603(13) . ?
 C4 H4 0.9500 . ?
 C5 C1 1.5186(13) 3_655 ?
 C5 H5A 0.9900 . ?
 C5 H5B 0.9900 . ?
 C7 H7A 0.9800 . ?
 C7 H7B 0.9800 . ?
 C7 H7C 0.9800 . ?
 C8 C10 1.4314(14) . ?
 C9 C10 1.4327(15) . ?
 C10 C11 1.3828(13) . ?
 C11 C12 1.4447(14) . ?
 C11 C13 1.4461(13) 3_755 ?
 C12 H12 0.9500 . ?
 C12 C13 1.3558(14) . ?
 C13 C11 1.4461(13) 3_755 ?
 C13 H13 0.9500 . ?

loop_
  _geom_angle_atom_site_label_1
  _geom_angle_atom_site_label_2
  _geom_angle_atom_site_label_3
  _geom_angle
  _geom_angle_site_symmetry_1
  _geom_angle_site_symmetry_3
  _geom_angle_publ_flag
 N1 Ni1 N1 180.00(7) 3_655 . ?
 N1 Ni1 N2 86.25(4) 3_655 . ?
 N1 Ni1 N2 93.75(4) . . ?
 N1 Ni1 N2 86.25(4) . 3_655 ?
 N1 Ni1 N2 93.75(4) 3_655 3_655 ?
 N2 Ni1 N2 180.00(5) 3_655 . ?
 C6 O2 C7 115.23(8) . . ?
 C1 N1 Ni1 113.92(6) . . ?
 C2 N1 Ni1 127.50(7) . . ?
 C2 N1 C1 118.49(8) . . ?
 C4 N2 Ni1 127.63(7) . . ?
 C4 N2 C5 117.95(8) . . ?
 C5 N2 Ni1 114.41(6) . . ?
 N1 C1 H1A 110.3 . . ?
 N1 C1 H1B 110.3 . . ?
 N1 C1 C5 107.17(8) . 3_655 ?
 H1A C1 H1B 108.5 . . ?
 C5 C1 H1A 110.3 3_655 . ?
 C5 C1 H1B 110.3 3_655 . ?
 N1 C2 H2 117.9 . . ?
 N1 C2 C3 124.23(9) . . ?
 C3 C2 H2 117.9 . . ?
 C2 C3 C6 116.88(8) . . ?
 C4 C3 C2 121.95(9) . . ?
 C4 C3 C6 121.12(9) . . ?
 N2 C4 C3 124.09(9) . . ?
 N2 C4 H4 118.0 . . ?
 C3 C4 H4 118.0 . . ?
 N2 C5 C1 107.43(8) . 3_655 ?
 N2 C5 H5A 110.2 . . ?
 N2 C5 H5B 110.2 . . ?
 C1 C5 H5A 110.2 3_655 . ?
 C1 C5 H5B 110.2 3_655 . ?
 H5A C5 H5B 108.5 . . ?
 O1 C6 O2 122.18(9) . . ?
 O1 C6 C3 125.03(9) . . ?
 O2 C6 C3 112.80(8) . . ?
 O2 C7 H7A 109.5 . . ?
 O2 C7 H7B 109.5 . . ?
 O2 C7 H7C 109.5 . . ?
 H7A C7 H7B 109.5 . . ?
 H7A C7 H7C 109.5 . . ?
 H7B C7 H7C 109.5 . . ?
 N3 C8 C10 179.59(12) . . ?
 N4 C9 C10 178.43(12) . . ?
 C8 C10 C9 116.37(9) . . ?
 C11 C10 C8 121.96(9) . . ?
 C11 C10 C9 121.67(9) . . ?
 C10 C11 C12 120.49(9) . . ?
 C10 C11 C13 120.88(9) . 3_755 ?
 C12 C11 C13 118.62(9) . 3_755 ?
 C11 C12 H12 119.6 . . ?
 C13 C12 C11 120.76(9) . . ?
 C13 C12 H12 119.6 . . ?
 C11 C13 H13 119.7 3_755 . ?
 C12 C13 C11 120.62(9) . 3_755 ?
 C12 C13 H13 119.7 . . ?

loop_
  _geom_torsion_atom_site_label_1
  _geom_torsion_atom_site_label_2
  _geom_torsion_atom_site_label_3
  _geom_torsion_atom_site_label_4
  _geom_torsion
  _geom_torsion_site_symmetry_1
  _geom_torsion_site_symmetry_2
  _geom_torsion_site_symmetry_3
  _geom_torsion_site_symmetry_4
  _geom_torsion_publ_flag
 Ni1 N1 C1 C5 30.35(9) . . . 3_655 ?
 Ni1 N1 C2 C3 7.11(14) . . . . ?
 Ni1 N2 C4 C3 -0.47(14) . . . . ?
 Ni1 N2 C5 C1 -25.95(9) . . . 3_655 ?
 N1 Ni1 N1 C1 -132(100) 3_655 . . . ?
 N1 Ni1 N1 C2 51(100) 3_655 . . . ?
 N1 Ni1 N2 C4 6.64(9) . . . . ?
 N1 Ni1 N2 C4 -173.36(9) 3_655 . . . ?
 N1 Ni1 N2 C5 -172.16(7) . . . . ?
 N1 Ni1 N2 C5 7.84(7) 3_655 . . . ?
 N1 C2 C3 C4 2.15(15) . . . . ?
 N1 C2 C3 C6 179.61(9) . . . . ?
 N2 Ni1 N1 C1 -13.53(7) 3_655 . . . ?
 N2 Ni1 N1 C1 166.47(7) . . . . ?
 N2 Ni1 N1 C2 -9.90(9) . . . . ?
 N2 Ni1 N1 C2 170.10(9) 3_655 . . . ?
 N2 Ni1 N2 C4 -49(52) 3_655 . . . ?
 N2 Ni1 N2 C5 132(52) 3_655 . . . ?
 N3 C8 C10 C9 -56(18) . . . . ?
 N3 C8 C10 C11 124(18) . . . . ?
 N4 C9 C10 C8 115(4) . . . . ?
 N4 C9 C10 C11 -64(4) . . . . ?
 C1 N1 C2 C3 -169.11(9) . . . . ?
 C2 N1 C1 C5 -152.93(9) . . . 3_655 ?
 C2 C3 C4 N2 -5.57(15) . . . . ?
 C2 C3 C6 O1 12.38(15) . . . . ?
 C2 C3 C6 O2 -167.49(9) . . . . ?
 C4 N2 C5 C1 155.13(9) . . . 3_655 ?
 C4 C3 C6 O1 -170.14(10) . . . . ?
 C4 C3 C6 O2 9.99(13) . . . . ?
 C5 N2 C4 C3 178.29(9) . . . . ?
 C6 C3 C4 N2 177.07(9) . . . . ?
 C7 O2 C6 O1 -0.53(14) . . . . ?
 C7 O2 C6 C3 179.34(9) . . . . ?
 C8 C10 C11 C12 -2.15(15) . . . . ?
 C8 C10 C11 C13 178.72(9) . . . 3_755 ?
 C9 C10 C11 C12 177.27(9) . . . . ?
 C9 C10 C11 C13 -1.86(15) . . . 3_755 ?
 C10 C11 C12 C13 -178.61(9) . . . . ?
 C11 C12 C13 C11 -0.56(16) . . . 3_755 ?
 C13 C11 C12 C13 0.55(16) 3_755 . . . ?

_iucr_refine_instructions_details
;
TITL 14ni_tcnq2 in P21/c #14
CELL 0.71073 7.7981 12.4408 12.5783 90 97.647 90
ZERR 2 0.0001 0.0002 0.0002 0 0.002 0
LATT 1
SYMM -X,0.5+Y,0.5-Z
 
SFAC C H N Ni O
UNIT 52 44 16 2 8
 
L.S. 10
PLAN  40
SIZE 0.1 0.2 0.3
TEMP -173.15
REM reset to P21/c #14
BOND $H
CONF
HTAB
fmap 2
acta 50
OMIT 0 1 1
OMIT 1 0 0
REM <HKL>C:/Projects/Dydaktyka/inz_nano_2011_2012/grupaE/14ni_tcnq/ref/14ni_tc
REM nq2.hkl</HKL>
 
WGHT    0.037100    0.545300
FVAR       0.12359
NI1   4    0.500000    0.000000    0.000000    10.50000    0.01035    0.00758 =
         0.00758    0.00024    0.00233    0.00046
O1    5    0.196197    0.094421    0.356473    11.00000    0.01759    0.01384 =
         0.01410   -0.00156    0.00590    0.00089
O2    5    0.333547   -0.062120    0.399804    11.00000    0.02373    0.01852 =
         0.00997    0.00378    0.00767    0.00688
N1    3    0.410992    0.111030    0.074207    11.00000    0.01351    0.00826 =
         0.00986    0.00036    0.00273    0.00049
N2    3    0.505266   -0.096094    0.113187    11.00000    0.01191    0.00887 =
         0.00960    0.00044    0.00242    0.00065
N3    3    0.763683    0.192489    0.267944    11.00000    0.02610    0.02135 =
         0.01817   -0.00007    0.00785    0.00457
N4    3    0.909001   -0.144788    0.332720    11.00000    0.02693    0.01981 =
         0.01594   -0.00011    0.00537   -0.00258
C1    1    0.420537    0.217099    0.023395    11.00000    0.02083    0.00880 =
         0.01154   -0.00003    0.00505    0.00063
AFIX  23
H1A   2    0.531413    0.252767    0.050116    11.00000   -1.20000
H1B   2    0.324481    0.263472    0.040119    11.00000   -1.20000
AFIX   0
C2    1    0.350997    0.105435    0.166358    11.00000    0.01172    0.01053 =
         0.01034   -0.00109    0.00194   -0.00003
AFIX  43
H2    2    0.297195    0.167615    0.190714    11.00000   -1.20000
AFIX   0
C3    1    0.361052    0.012928    0.231958    11.00000    0.01170    0.01187 =
         0.00880   -0.00026    0.00276   -0.00033
C4    1    0.443642   -0.081975    0.204225    11.00000    0.01136    0.01095 =
         0.00971    0.00070    0.00189   -0.00053
AFIX  43
H4    2    0.455343   -0.139225    0.254651    11.00000   -1.20000
AFIX   0
C5    1    0.592728   -0.198567    0.096749    11.00000    0.01501    0.00923 =
         0.01100    0.00060    0.00315    0.00245
AFIX  23
H5A   2    0.536369   -0.258139    0.131137    11.00000   -1.20000
H5B   2    0.715637   -0.195042    0.128777    11.00000   -1.20000
AFIX   0
C6    1    0.288203    0.021207    0.332755    11.00000    0.01215    0.01239 =
         0.00920   -0.00056    0.00181   -0.00179
C7    1    0.266760   -0.057593    0.501250    11.00000    0.02632    0.02467 =
         0.01010    0.00269    0.00821    0.00648
AFIX 137
H7A   2    0.140043   -0.059629    0.488843    11.00000   -1.50000
H7B   2    0.304884    0.009178    0.538456    11.00000   -1.50000
H7C   2    0.309965   -0.119251    0.545391    11.00000   -1.50000
AFIX   0
 
C8    1    0.821717    0.114524    0.238948    11.00000    0.01588    0.01837 =
         0.01141    0.00035    0.00417    0.00031
C9    1    0.903288   -0.071950    0.275821    11.00000    0.01519    0.01728 =
         0.01156   -0.00364    0.00356   -0.00149
C10   1    0.892856    0.017075    0.202989    11.00000    0.01209    0.01466 =
         0.01045   -0.00129    0.00262   -0.00060
C11   1    0.947267    0.008756    0.103076    11.00000    0.01029    0.01377 =
         0.01087   -0.00097    0.00274   -0.00051
C12   1    0.928242    0.098376    0.029411    11.00000    0.01369    0.01366 =
         0.01299    0.00012    0.00337    0.00219
AFIX  43
H12   2    0.880309    0.163967    0.050523    11.00000   -1.20000
AFIX   0
C13   1    0.978012    0.089949   -0.069509    11.00000    0.01366    0.01336 =
         0.01248    0.00007    0.00338    0.00107
AFIX  43
H13   2    0.963662    0.149442   -0.117213    11.00000   -1.20000
HKLF 4
 
REM  14ni_tcnq2 in P21/c #14
REM R1 =  0.0259 for   3734 Fo > 4sig(Fo)  and  0.0292 for all   4071 data
REM    179 parameters refined using      0 restraints
 
END  
     
WGHT      0.0371      0.5453 
REM Highest difference peak  0.442,  deepest hole -0.446,  1-sigma level  0.073
Q1    1   0.9200  0.0144  0.1574  11.00000  0.05    0.44
Q2    1   1.0148  0.0403 -0.0831  11.00000  0.05    0.42
Q3    1   0.5856 -0.2057  0.0399  11.00000  0.05    0.42
Q4    1   0.3633  0.0582  0.1990  11.00000  0.05    0.42
Q5    1   0.9625  0.0926 -0.0151  11.00000  0.05    0.41
Q6    1   0.9377  0.0552  0.0681  11.00000  0.05    0.40
Q7    1   0.3309  0.0198  0.2799  11.00000  0.05    0.40
Q8    1   0.4019 -0.0348  0.2183  11.00000  0.05    0.36
Q9    1   0.3839  0.1115  0.1162  11.00000  0.05    0.32
Q10   1   0.7763  0.1615  0.2197  11.00000  0.05    0.30
Q11   1   0.8635  0.0639  0.2213  11.00000  0.05    0.30
Q12   1   0.8205  0.1724  0.2356  11.00000  0.05    0.30
Q13   1   0.4738 -0.0854  0.1596  11.00000  0.05    0.30
Q14   1   0.4037  0.1679  0.0487  11.00000  0.05    0.29
Q15   1   0.5402 -0.1456  0.1072  11.00000  0.05    0.29
Q16   1   0.4234  0.0674  0.0465  11.00000  0.05    0.28
Q17   1   0.4986 -0.0556  0.0786  11.00000  0.05    0.28
Q18   1   0.8056  0.1413  0.2821  11.00000  0.05    0.28
Q19   1   0.9025 -0.0225  0.2355  11.00000  0.05    0.26
Q20   1   0.7363  0.1444  0.2474  11.00000  0.05    0.25
Q21   1   0.7112  0.2589  0.2721  11.00000  0.05    0.24
Q22   1   0.3119 -0.0169  0.3743  11.00000  0.05    0.23
Q23   1   0.7616  0.2351  0.2494  11.00000  0.05    0.23
Q24   1   0.9043 -0.1181  0.2722  11.00000  0.05    0.22
Q25   1   0.4535  0.2591  0.0614  11.00000  0.05    0.21
Q26   1   0.9067 -0.0843  0.3263  11.00000  0.05    0.21
Q27   1   0.2577  0.0749  0.3483  11.00000  0.05    0.21
Q28   1   0.3810  0.2787  0.0567  11.00000  0.05    0.21
Q29   1   0.5246 -0.0653  0.0147  11.00000  0.05    0.20
Q30   1   0.9278 -0.2015  0.3716  11.00000  0.05    0.20
Q31   1   0.8582 -0.0979  0.3056  11.00000  0.05    0.20
Q32   1   0.5897 -0.2445  0.1554  11.00000  0.05    0.20
Q33   1   0.7594  0.1941  0.2956  11.00000  0.05    0.19
Q34   1   0.4815 -0.0677  0.0004  11.00000  0.05    0.19
Q35   1   0.6564 -0.1884  0.1064  11.00000  0.05    0.19
Q36   1   0.9642 -0.0972  0.3195  11.00000  0.05    0.19
Q37   1   0.3900 -0.0927  0.3963  11.00000  0.05    0.19
Q38   1   0.5824  0.2330  0.0525  11.00000  0.05    0.19
Q39   1   0.3128 -0.0563  0.4298  11.00000  0.05    0.18
Q40   1   0.2225  0.1134  0.3716  11.00000  0.05    0.18
;