data_ah517_1
_audit_creation_date              2012-12-06
_audit_creation_method
;
  Olex2 1.1
  (compiled Nov  1 2011 20:42:30, GUI svn.r3906)
;
_publ_contact_author_address      ?
_publ_contact_author_email        ?
_publ_contact_author_name         ''
_publ_contact_author_phone        ?
_chemical_name_common             ?
_chemical_name_systematic
;
 ? 
;
_chemical_formula_moiety          'C15 H12 Cl N3 O2 S'
_chemical_formula_sum             'C15 H12 Cl N3 O2 S'
_chemical_formula_weight          333.79
_chemical_melting_point           ?
loop_
  _atom_type_symbol
  _atom_type_description
  _atom_type_scat_dispersion_real
  _atom_type_scat_dispersion_imag
  _atom_type_scat_source
 'C' 'C' 0.0033 0.0016 'International Tables Vol C Tables 4.2.6.8 and 6.1.1.4'
 'H' 'H' 0.0000 0.0000 'International Tables Vol C Tables 4.2.6.8 and 6.1.1.4'
 'Cl' 'Cl' 0.1484 0.1585 'International Tables Vol C Tables 4.2.6.8 and 6.1.1.4'
 'N' 'N' 0.0061 0.0033 'International Tables Vol C Tables 4.2.6.8 and 6.1.1.4'
 'O' 'O' 0.0106 0.0060 'International Tables Vol C Tables 4.2.6.8 and 6.1.1.4'
 'S' 'S' 0.1246 0.1234 'International Tables Vol C Tables 4.2.6.8 and 6.1.1.4'

_space_group_crystal_system       'triclinic'
_space_group_IT_number            2
_space_group_name_H-M_alt         'P -1'
_space_group_name_Hall            '-P 1'
loop_
  _space_group_symop_id
  _space_group_symop_operation_xyz
 1 'x, y, z'
 2 '-x, -y, -z'

_cell_length_a                    8.2966(6)
_cell_length_b                    9.2314(6)
_cell_length_c                    10.5063(7)
_cell_angle_alpha                 82.769(6)
_cell_angle_beta                  71.563(6)
_cell_angle_gamma                 65.424(7)
_cell_volume                      694.20(8)
_cell_formula_units_Z             2
_cell_measurement_reflns_used   8560
_cell_measurement_theta_min     2.0392
_cell_measurement_theta_max     32.2033
_cell_measurement_temperature     100(2)
_exptl_absorpt_coefficient_mu     0.436
_exptl_absorpt_correction_T_min                   0.95068
_exptl_absorpt_correction_T_max                   1.00000
_exptl_absorpt_correction_type            'multi-scan'
_exptl_absorpt_process_details
;
CrysAlisPro, Agilent Technologies,
Version 1.171.35.19 (release 27-10-2011 CrysAlis171 .NET)
(compiled Oct 27 2011,15:02:11)
Empirical absorption correction using spherical harmonics,
 implemented in SCALE3 ABSPACK scaling algorithm.
;
_exptl_crystal_colour             colourless
_exptl_crystal_colour_lustre      .
_exptl_crystal_colour_modifier    .
_exptl_crystal_colour_primary     colourless
_exptl_crystal_density_diffrn     1.597
_exptl_crystal_density_meas       ?
_exptl_crystal_density_method     'not measured'
_exptl_crystal_description        block
_exptl_crystal_F_000              344
_exptl_crystal_size_max           0.3
_exptl_crystal_size_mid           0.2
_exptl_crystal_size_min           0.1
_exptl_special_details
;
 ? 
;
_diffrn_reflns_av_R_equivalents   0.0361
_diffrn_reflns_av_unetI/netI      0.0355
_diffrn_reflns_limit_h_max        12
_diffrn_reflns_limit_h_min        -12
_diffrn_reflns_limit_k_max        13
_diffrn_reflns_limit_k_min        -13
_diffrn_reflns_limit_l_max        15
_diffrn_reflns_limit_l_min        -15
_diffrn_reflns_number             16272
_diffrn_reflns_theta_full         25.00
_diffrn_reflns_theta_max          32.28
_diffrn_reflns_theta_min          2.43
_diffrn_ambient_temperature       100.15
_diffrn_detector_area_resol_mean  ?
_diffrn_measured_fraction_theta_full 1.000
_diffrn_measured_fraction_theta_max 0.937
_diffrn_measurement_device_type   ?
_diffrn_measurement_method        ?
_diffrn_radiation_monochromator   graphite
_diffrn_radiation_type            'MO K\a'
_diffrn_radiation_wavelength      0.71073
_diffrn_source                    'fine-focus sealed tube'
_diffrn_source_current            n/a
_diffrn_source_voltage            n/a
_reflns_number_gt                 3763
_reflns_number_total              4621
_reflns_threshold_expression      >2sigma(I)
_computing_cell_refinement        ?
_computing_data_collection        ?
_computing_data_reduction         ?
_computing_molecular_graphics
;
O. V. Dolomanov, L. J. Bourhis, R. J. Gildea, J. A. K. Howard and H. Puschmann,
OLEX2: a complete structure solution, refinement and analysis program.
J. Appl. Cryst. (2009). 42, 339-341.
;
_computing_publication_material
;
O. V. Dolomanov, L. J. Bourhis, R. J. Gildea, J. A. K. Howard and H. Puschmann,
OLEX2: a complete structure solution, refinement and analysis program.
J. Appl. Cryst. (2009). 42, 339-341.
;
_computing_structure_refinement
;
XL, G.M. Sheldrick, Acta Cryst.
(2008). A64, 112-122
;
_computing_structure_solution
;
XS, G.M. Sheldrick, Acta Cryst.
(2008). A64, 112-122
;
_refine_diff_density_max          0.580
_refine_diff_density_min          -0.555
_refine_diff_density_rms          0.085
_refine_ls_extinction_coef        ?
_refine_ls_extinction_method      none
_refine_ls_goodness_of_fit_ref    1.063
_refine_ls_hydrogen_treatment     mixed
_refine_ls_matrix_type            full
_refine_ls_number_parameters      202
_refine_ls_number_reflns          4621
_refine_ls_number_restraints      0
_refine_ls_R_factor_all           0.0504
_refine_ls_R_factor_gt            0.0380
_refine_ls_restrained_S_all       1.063
_refine_ls_shift/su_max           0.001
_refine_ls_shift/su_mean          0.000
_refine_ls_structure_factor_coef  Fsqd
_refine_ls_weighting_details
'calc w=1/[\s^2^(Fo^2^)+(0.0612P)^2^+0.2390P] where P=(Fo^2^+2Fc^2^)/3'
_refine_ls_weighting_scheme       calc
_refine_ls_wR_factor_gt           0.1064
_refine_ls_wR_factor_ref          0.1146
_refine_special_details
;
 Refinement of F^2^ against ALL reflections.  The weighted R-factor wR and 
 goodness of fit S are based on F^2^, conventional R-factors R are based 
 on F, with F set to zero for negative F^2^. The threshold expression of 
 F^2^ > 2sigma(F^2^) is used only for calculating R-factors(gt) etc. and is 
 not relevant to the choice of reflections for refinement.  R-factors based 
 on F^2^ are statistically about twice as large as those based on F, and R- 
 factors based on ALL data will be even larger. 
;
_atom_sites_solution_hydrogens    geom
_atom_sites_solution_primary      direct
_atom_sites_solution_secondary    difmap
loop_
  _atom_site_label
  _atom_site_type_symbol
  _atom_site_fract_x
  _atom_site_fract_y
  _atom_site_fract_z
  _atom_site_U_iso_or_equiv
  _atom_site_adp_type
  _atom_site_occupancy
  _atom_site_symmetry_multiplicity
  _atom_site_calc_flag
  _atom_site_refinement_flags
  _atom_site_disorder_assembly
  _atom_site_disorder_group
 Cl1 Cl 1.20460(7) 0.38294(5) 0.57215(4) 0.02612(11) Uani 1 1 d . . .
 S1 S 0.97063(5) 0.29219(4) 0.21314(3) 0.01338(9) Uani 1 1 d . . .
 O1 O 0.41538(16) 0.81739(13) -0.13005(11) 0.0189(2) Uani 1 1 d . . .
 H1 H 0.3453 0.8841 -0.0680 0.028 Uiso 1 1 calc R . .
 O2 O 0.84928(16) 0.28560(13) -0.18268(11) 0.0164(2) Uani 1 1 d . . .
 H2 H 0.9317 0.2179 -0.1510 0.025 Uiso 1 1 calc R . .
 N1 N 1.04704(17) 0.16561(14) -0.01261(12) 0.0135(2) Uani 1 1 d . . .
 N2 N 1.15613(18) 0.04910(14) 0.05544(12) 0.0139(2) Uani 1 1 d . . .
 N3 N 1.21035(19) -0.00952(15) 0.26358(13) 0.0153(2) Uani 1 1 d . . .
 H3 H 1.2570 -0.1107 0.2413 0.018 Uiso 1 1 calc R . .
 C1 C 0.7234(2) 0.58449(17) 0.07161(14) 0.0133(3) Uani 1 1 d . . .
 H1A H 0.7528 0.5954 0.1493 0.016 Uiso 1 1 calc R . .
 C2 C 0.5932(2) 0.71404(17) 0.02804(14) 0.0137(3) Uani 1 1 d . . .
 H2A H 0.5356 0.8133 0.0740 0.016 Uiso 1 1 calc R . .
 C3 C 0.5471(2) 0.69701(17) -0.08511(14) 0.0137(3) Uani 1 1 d . . .
 C4 C 0.6384(2) 0.55374(17) -0.15633(14) 0.0138(3) Uani 1 1 d . . .
 H4 H 0.6107 0.5445 -0.2352 0.017 Uiso 1 1 calc R . .
 C5 C 0.7701(2) 0.42414(16) -0.11210(14) 0.0123(2) Uani 1 1 d . . .
 C6 C 0.81347(19) 0.43727(16) 0.00441(14) 0.0119(2) Uani 1 1 d . . .
 C7 C 0.94278(19) 0.29879(16) 0.05503(14) 0.0117(2) Uani 1 1 d . . .
 C8 C 1.1288(2) 0.09594(16) 0.17620(14) 0.0129(3) Uani 1 1 d . . .
 C9 C 1.2297(2) 0.02178(17) 0.38407(14) 0.0133(3) Uani 1 1 d . . .
 C10 C 1.2094(2) 0.17235(17) 0.41477(15) 0.0153(3) Uani 1 1 d . . .
 H10 H 1.1815 0.2581 0.3539 0.018 Uiso 1 1 calc R . .
 C11 C 1.2308(2) 0.19472(18) 0.53559(15) 0.0157(3) Uani 1 1 d . . .
 C12 C 1.2770(2) 0.07166(19) 0.62487(15) 0.0170(3) Uani 1 1 d . . .
 H12 H 1.2907 0.0891 0.7074 0.020 Uiso 1 1 calc R . .
 C13 C 1.3028(2) -0.07854(19) 0.58971(15) 0.0165(3) Uani 1 1 d . . .
 H13 H 1.3379 -0.1648 0.6489 0.020 Uiso 1 1 calc R . .
 C14 C 1.2793(2) -0.10724(18) 0.47144(14) 0.0141(3) Uani 1 1 d . . .
 C15 C 1.3108(2) -0.27180(18) 0.43619(16) 0.0181(3) Uani 1 1 d . . .
 H15A H 1.1959 -0.2707 0.4279 0.027 Uiso 1 1 calc R . .
 H15B H 1.3484 -0.3461 0.5069 0.027 Uiso 1 1 calc R . .
 H15C H 1.4086 -0.3058 0.3508 0.027 Uiso 1 1 calc R . .

loop_
  _atom_site_aniso_label
  _atom_site_aniso_U_11
  _atom_site_aniso_U_22
  _atom_site_aniso_U_33
  _atom_site_aniso_U_23
  _atom_site_aniso_U_13
  _atom_site_aniso_U_12
 Cl1 0.0360(2) 0.01802(19) 0.0295(2) -0.00491(15) -0.01704(18) -0.00893(17)
 S1 0.01716(17) 0.01016(16) 0.01172(16) -0.00202(11) -0.00637(12) -0.00229(13)
 O1 0.0210(5) 0.0127(5) 0.0164(5) -0.0027(4) -0.0097(4) 0.0033(4)
 O2 0.0207(5) 0.0107(5) 0.0172(5) -0.0042(4) -0.0103(4) -0.0009(4)
 N1 0.0159(6) 0.0104(5) 0.0143(5) -0.0011(4) -0.0083(4) -0.0022(4)
 N2 0.0172(6) 0.0100(5) 0.0144(5) -0.0010(4) -0.0089(4) -0.0018(4)
 N3 0.0220(6) 0.0093(5) 0.0149(6) -0.0011(4) -0.0110(5) -0.0022(5)
 C1 0.0146(6) 0.0118(6) 0.0135(6) -0.0024(5) -0.0049(5) -0.0040(5)
 C2 0.0148(6) 0.0102(6) 0.0146(6) -0.0023(5) -0.0046(5) -0.0027(5)
 C3 0.0146(6) 0.0114(6) 0.0131(6) 0.0000(5) -0.0046(5) -0.0028(5)
 C4 0.0163(6) 0.0121(6) 0.0130(6) -0.0010(5) -0.0068(5) -0.0035(5)
 C5 0.0144(6) 0.0094(6) 0.0126(6) -0.0024(5) -0.0045(5) -0.0032(5)
 C6 0.0128(6) 0.0105(6) 0.0126(6) -0.0009(5) -0.0055(5) -0.0034(5)
 C7 0.0134(6) 0.0098(6) 0.0132(6) 0.0000(4) -0.0065(5) -0.0040(5)
 C8 0.0161(6) 0.0093(6) 0.0142(6) -0.0003(5) -0.0070(5) -0.0040(5)
 C9 0.0144(6) 0.0135(6) 0.0123(6) -0.0014(5) -0.0063(5) -0.0037(5)
 C10 0.0179(7) 0.0132(6) 0.0160(6) -0.0004(5) -0.0090(5) -0.0042(5)
 C11 0.0170(6) 0.0152(6) 0.0171(7) -0.0036(5) -0.0069(5) -0.0060(5)
 C12 0.0194(7) 0.0211(7) 0.0125(6) -0.0020(5) -0.0067(5) -0.0077(6)
 C13 0.0191(7) 0.0195(7) 0.0130(6) 0.0020(5) -0.0072(5) -0.0084(6)
 C14 0.0160(6) 0.0141(6) 0.0130(6) -0.0002(5) -0.0051(5) -0.0059(5)
 C15 0.0242(7) 0.0143(7) 0.0178(7) 0.0019(5) -0.0096(6) -0.0074(6)

_geom_special_details
;
 All esds (except the esd in the dihedral angle between two l.s. planes) 
 are estimated using the full covariance matrix.  The cell esds are taken 
 into account individually in the estimation of esds in distances, angles 
 and torsion angles; correlations between esds in cell parameters are only 
 used when they are defined by crystal symmetry.  An approximate (isotropic) 
 treatment of cell esds is used for estimating esds involving l.s. planes. 
;
loop_
  _geom_bond_atom_site_label_1
  _geom_bond_atom_site_label_2
  _geom_bond_distance
  _geom_bond_site_symmetry_2
  _geom_bond_publ_flag
 Cl1 C11 1.7364(15) . ?
 S1 C7 1.7384(14) . ?
 S1 C8 1.7414(15) . ?
 O1 H1 0.8400 . ?
 O1 C3 1.3553(17) . ?
 O2 H2 0.8400 . ?
 O2 C5 1.3598(16) . ?
 N1 N2 1.3759(17) . ?
 N1 C7 1.3081(18) . ?
 N2 C8 1.3126(18) . ?
 N3 H3 0.8800 . ?
 N3 C8 1.3667(18) . ?
 N3 C9 1.4038(18) . ?
 C1 H1A 0.9500 . ?
 C1 C2 1.381(2) . ?
 C1 C6 1.4025(19) . ?
 C2 H2A 0.9500 . ?
 C2 C3 1.403(2) . ?
 C3 C4 1.3929(19) . ?
 C4 H4 0.9500 . ?
 C4 C5 1.391(2) . ?
 C5 C6 1.4122(19) . ?
 C6 C7 1.4549(19) . ?
 C9 C10 1.396(2) . ?
 C9 C14 1.410(2) . ?
 C10 H10 0.9500 . ?
 C10 C11 1.387(2) . ?
 C11 C12 1.384(2) . ?
 C12 H12 0.9500 . ?
 C12 C13 1.392(2) . ?
 C13 H13 0.9500 . ?
 C13 C14 1.390(2) . ?
 C14 C15 1.505(2) . ?
 C15 H15A 0.9800 . ?
 C15 H15B 0.9800 . ?
 C15 H15C 0.9800 . ?

loop_
  _geom_angle_atom_site_label_1
  _geom_angle_atom_site_label_2
  _geom_angle_atom_site_label_3
  _geom_angle
  _geom_angle_site_symmetry_1
  _geom_angle_site_symmetry_3
  _geom_angle_publ_flag
 C7 S1 C8 87.10(7) . . ?
 C3 O1 H1 109.5 . . ?
 C5 O2 H2 109.5 . . ?
 C7 N1 N2 113.76(12) . . ?
 C8 N2 N1 112.12(12) . . ?
 C8 N3 H3 115.6 . . ?
 C8 N3 C9 128.76(12) . . ?
 C9 N3 H3 115.6 . . ?
 C2 C1 H1A 119.1 . . ?
 C2 C1 C6 121.85(13) . . ?
 C6 C1 H1A 119.1 . . ?
 C1 C2 H2A 120.5 . . ?
 C1 C2 C3 119.06(13) . . ?
 C3 C2 H2A 120.5 . . ?
 O1 C3 C2 122.10(13) . . ?
 O1 C3 C4 117.56(13) . . ?
 C4 C3 C2 120.34(13) . . ?
 C3 C4 H4 119.9 . . ?
 C5 C4 C3 120.11(13) . . ?
 C5 C4 H4 119.9 . . ?
 O2 C5 C4 117.45(12) . . ?
 O2 C5 C6 122.20(13) . . ?
 C4 C5 C6 120.32(12) . . ?
 C1 C6 C5 118.24(13) . . ?
 C1 C6 C7 121.58(12) . . ?
 C5 C6 C7 120.14(12) . . ?
 N1 C7 S1 113.17(10) . . ?
 N1 C7 C6 123.48(13) . . ?
 C6 C7 S1 123.34(10) . . ?
 N2 C8 S1 113.80(11) . . ?
 N2 C8 N3 120.26(13) . . ?
 N3 C8 S1 125.75(11) . . ?
 N3 C9 C14 117.35(13) . . ?
 C10 C9 N3 121.98(13) . . ?
 C10 C9 C14 120.60(13) . . ?
 C9 C10 H10 120.5 . . ?
 C11 C10 C9 118.90(13) . . ?
 C11 C10 H10 120.5 . . ?
 C10 C11 Cl1 118.23(12) . . ?
 C12 C11 Cl1 119.54(11) . . ?
 C12 C11 C10 122.20(14) . . ?
 C11 C12 H12 121.1 . . ?
 C11 C12 C13 117.74(13) . . ?
 C13 C12 H12 121.1 . . ?
 C12 C13 H13 118.7 . . ?
 C14 C13 C12 122.57(14) . . ?
 C14 C13 H13 118.7 . . ?
 C9 C14 C15 121.08(13) . . ?
 C13 C14 C9 117.92(13) . . ?
 C13 C14 C15 120.98(13) . . ?
 C14 C15 H15A 109.5 . . ?
 C14 C15 H15B 109.5 . . ?
 C14 C15 H15C 109.5 . . ?
 H15A C15 H15B 109.5 . . ?
 H15A C15 H15C 109.5 . . ?
 H15B C15 H15C 109.5 . . ?

loop_
  _geom_hbond_atom_site_label_D
  _geom_hbond_atom_site_label_H
  _geom_hbond_atom_site_label_A
  _geom_hbond_distance_DH
  _geom_hbond_distance_HA
  _geom_hbond_distance_DA
  _geom_hbond_angle_DHA
  _geom_hbond_site_symmetry_A
 O1 H1 N2 0.84 1.92 2.7515(17) 170.1 1_465
 O2 H2 N1 0.84 1.89 2.6375(16) 147.1 .
 N3 H3 O2 0.88 2.35 3.0533(16) 136.5 2_755

loop_
  _geom_torsion_atom_site_label_1
  _geom_torsion_atom_site_label_2
  _geom_torsion_atom_site_label_3
  _geom_torsion_atom_site_label_4
  _geom_torsion
  _geom_torsion_site_symmetry_1
  _geom_torsion_site_symmetry_2
  _geom_torsion_site_symmetry_3
  _geom_torsion_site_symmetry_4
  _geom_torsion_publ_flag
 Cl1 C11 C12 C13 -177.87(12) . . . . ?
 O1 C3 C4 C5 -177.64(13) . . . . ?
 O2 C5 C6 C1 -179.29(13) . . . . ?
 O2 C5 C6 C7 -1.7(2) . . . . ?
 N1 N2 C8 S1 -2.21(16) . . . . ?
 N1 N2 C8 N3 172.99(13) . . . . ?
 N2 N1 C7 S1 0.00(16) . . . . ?
 N2 N1 C7 C6 -178.69(13) . . . . ?
 N3 C9 C10 C11 -179.87(14) . . . . ?
 N3 C9 C14 C13 178.63(13) . . . . ?
 N3 C9 C14 C15 0.2(2) . . . . ?
 C1 C2 C3 O1 177.35(14) . . . . ?
 C1 C2 C3 C4 -3.2(2) . . . . ?
 C1 C6 C7 S1 10.4(2) . . . . ?
 C1 C6 C7 N1 -171.01(14) . . . . ?
 C2 C1 C6 C5 1.0(2) . . . . ?
 C2 C1 C6 C7 -176.49(14) . . . . ?
 C2 C3 C4 C5 2.9(2) . . . . ?
 C3 C4 C5 O2 177.45(13) . . . . ?
 C3 C4 C5 C6 -0.6(2) . . . . ?
 C4 C5 C6 C1 -1.4(2) . . . . ?
 C4 C5 C6 C7 176.19(13) . . . . ?
 C5 C6 C7 S1 -167.03(11) . . . . ?
 C5 C6 C7 N1 11.5(2) . . . . ?
 C6 C1 C2 C3 1.2(2) . . . . ?
 C7 S1 C8 N2 1.83(12) . . . . ?
 C7 S1 C8 N3 -173.06(14) . . . . ?
 C7 N1 N2 C8 1.43(18) . . . . ?
 C8 S1 C7 N1 -1.00(11) . . . . ?
 C8 S1 C7 C6 177.69(13) . . . . ?
 C8 N3 C9 C10 -17.6(2) . . . . ?
 C8 N3 C9 C14 165.32(15) . . . . ?
 C9 N3 C8 S1 -19.5(2) . . . . ?
 C9 N3 C8 N2 165.92(15) . . . . ?
 C9 C10 C11 Cl1 -179.88(11) . . . . ?
 C9 C10 C11 C12 2.0(2) . . . . ?
 C10 C9 C14 C13 1.5(2) . . . . ?
 C10 C9 C14 C15 -176.94(14) . . . . ?
 C10 C11 C12 C13 0.2(2) . . . . ?
 C11 C12 C13 C14 -1.7(2) . . . . ?
 C12 C13 C14 C9 0.8(2) . . . . ?
 C12 C13 C14 C15 179.25(14) . . . . ?
 C14 C9 C10 C11 -2.9(2) . . . . ?

